(declare-const c_0 Real)
(declare-const c_1 Real)
(declare-const c_2 Real)
(declare-const c_3 Real)
(declare-const c_4 Real)
(declare-const c_5 Real)
(declare-const c_6 Real)
(declare-const c_7 Real)
(declare-const c_8 Real)
(declare-const c_9 Real)
(declare-const c_10 Real)
(declare-const c_11 Real)
(declare-const c_12 Real)
(declare-const c_13 Real)
(declare-const c_14 Real)
(declare-const s_0 Real)
(declare-const s_1 Real)
(declare-const s_2 Real)
(declare-const s_3 Real)
(declare-const s_4 Real)
(declare-const s_5 Real)
(declare-const s_6 Real)
(declare-const s_7 Real)
(declare-const s_8 Real)
(declare-const s_9 Real)
(declare-const s_10 Real)
(declare-const s_11 Real)
(declare-const s_12 Real)
(declare-const s_13 Real)
(declare-const s_14 Real)
(assert (forall ((temp Real) (r Real) (da Real) (db Real) ) (=> (and (>= (+ (* 1024 1) (* 1 temp ) ) 0) (>= (+ (* 1023 1) (* (- 1) temp ) ) 0) (>= (+ (* 1024 1) (* 1 r ) ) 0) (>= (+ (* 1023 1) (* (- 1) r ) ) 0) (>= (+ (* 1024 1) (* 1 da ) ) 0) (>= (+ (* 1023 1) (* (- 1) da ) ) 0) (>= (+ (* 1024 1) (* 1 db ) ) 0) (>= (+ (* 1023 1) (* (- 1) db ) ) 0) ) (>= (+ (* 1 da s_1 ) (* 1 db s_2 ) (* 1 r s_3 ) (* 1 s_0 ) (* 1 s_4 temp ) ) 0) )))
(assert (forall ((temp Real) (r Real) (da Real) (db Real) ) (=> (and (>= (+ (* 1024 1) (* 1 temp ) ) 0) (>= (+ (* 1023 1) (* (- 1) temp ) ) 0) (>= (+ (* 1024 1) (* 1 r ) ) 0) (>= (+ (* 1023 1) (* (- 1) r ) ) 0) (>= (+ (* 1024 1) (* 1 da ) ) 0) (>= (+ (* 1023 1) (* (- 1) da ) ) 0) (>= (+ (* 1024 1) (* 1 db ) ) 0) (>= (+ (* 1023 1) (* (- 1) db ) ) 0) ) (>= (+ (* 1 c_0 ) (* 1 c_1 da ) (* 1 c_2 db ) (* 1 c_3 r ) (* 1 c_4 temp ) ) 0) )))
(assert (forall ((temp Real) (r Real) (da Real) (db Real) ) (=> (and (>= (* 1 r ) 0) (>= (+ (* 1024 1) (* 1 temp ) ) 0) (>= (+ (* 1024 1) (* 1 r ) ) 0) (>= (+ (* 1024 1) (* 1 da ) ) 0) (>= (+ (* 1024 1) (* 1 db ) ) 0) (>= (+ (* 1023 1) (* (- 1) db ) ) 0) (>= (+ (* 1023 1) (* (- 1) da ) ) 0) (>= (+ (* 1023 1) (* (- 1) r ) ) 0) (>= (+ (* 1023 1) (* (- 1) temp ) ) 0) (>= (+ (* 1 da s_1 ) (* 1 db s_2 ) (* 1 r s_3 ) (* 1 s_0 ) (* 1 s_4 temp ) ) 0) ) (>= (+ (* 2 r s_6 ) (* 2 r s_7 ) (* 1 r s_8 ) (* 1 s_5 ) (* 1 s_9 temp ) ) 0) )))
(assert (forall ((temp Real) (r Real) (da Real) (db Real) ) (=> (and (>= (* 1 r ) 0) (>= (+ (* 1024 1) (* 1 temp ) ) 0) (>= (+ (* 1024 1) (* 1 r ) ) 0) (>= (+ (* 1024 1) (* 1 da ) ) 0) (>= (+ (* 1024 1) (* 1 db ) ) 0) (>= (+ (* 1023 1) (* (- 1) db ) ) 0) (>= (+ (* 1023 1) (* (- 1) da ) ) 0) (>= (+ (* 1023 1) (* (- 1) r ) ) 0) (>= (+ (* 1023 1) (* (- 1) temp ) ) 0) (>= (+ (* 1 da s_1 ) (* 1 db s_2 ) (* 1 r s_3 ) (* 1 s_0 ) (* 1 s_4 temp ) ) 0) ) (>= (+ (* 1 c_5 ) (* 2 c_6 r ) (* 2 c_7 r ) (* 1 c_8 r ) (* 1 c_9 temp ) ) 0) )))
(assert (forall ((temp Real) (r Real) (da Real) (db Real) ) (=> (and (>= (* 1 r ) 0) (>= (+ (* 1024 1) (* 1 temp ) ) 0) (>= (+ (* 1024 1) (* 1 r ) ) 0) (>= (+ (* 1024 1) (* 1 da ) ) 0) (>= (+ (* 1024 1) (* 1 db ) ) 0) (>= (+ (* 1023 1) (* (- 1) db ) ) 0) (>= (+ (* 1023 1) (* (- 1) da ) ) 0) (>= (+ (* 1023 1) (* (- 1) r ) ) 0) (>= (+ (* 1023 1) (* (- 1) temp ) ) 0) (>= (+ (* 1 da s_1 ) (* 1 db s_2 ) (* 1 r s_3 ) (* 1 s_0 ) (* 1 s_4 temp ) ) 0) ) (>= (+ (* (- 1) 1) (* 1 c_0 ) (* 1 c_1 da ) (* 1 c_2 db ) (* 1 c_3 r ) (* 1 c_4 temp ) (* (- 1) c_5 ) (* (- 2) c_6 r ) (* (- 2) c_7 r ) (* (- 1) c_8 r ) (* (- 1) c_9 temp ) ) 0) )))
(assert (forall ((temp Real) (r Real) (da Real) (db Real) ) (=> (and (>= (+ (* (- 1) 1) (* (- 1) r ) ) 0) (>= (+ (* 1024 1) (* 1 temp ) ) 0) (>= (+ (* 1024 1) (* 1 r ) ) 0) (>= (+ (* 1024 1) (* 1 da ) ) 0) (>= (+ (* 1024 1) (* 1 db ) ) 0) (>= (+ (* 1023 1) (* (- 1) db ) ) 0) (>= (+ (* 1023 1) (* (- 1) da ) ) 0) (>= (+ (* 1023 1) (* (- 1) r ) ) 0) (>= (+ (* 1023 1) (* (- 1) temp ) ) 0) (>= (+ (* 1 da s_1 ) (* 1 db s_2 ) (* 1 r s_3 ) (* 1 s_0 ) (* 1 s_4 temp ) ) 0) ) (>= (+ (* 1 da s_11 ) (* 1 db s_12 ) (* 1 r s_13 ) (* 1 s_10 ) (* 1 s_14 temp ) ) 0) )))
(assert (forall ((temp Real) (r Real) (da Real) (db Real) ) (=> (and (>= (+ (* (- 1) 1) (* (- 1) r ) ) 0) (>= (+ (* 1024 1) (* 1 temp ) ) 0) (>= (+ (* 1024 1) (* 1 r ) ) 0) (>= (+ (* 1024 1) (* 1 da ) ) 0) (>= (+ (* 1024 1) (* 1 db ) ) 0) (>= (+ (* 1023 1) (* (- 1) db ) ) 0) (>= (+ (* 1023 1) (* (- 1) da ) ) 0) (>= (+ (* 1023 1) (* (- 1) r ) ) 0) (>= (+ (* 1023 1) (* (- 1) temp ) ) 0) (>= (+ (* 1 da s_1 ) (* 1 db s_2 ) (* 1 r s_3 ) (* 1 s_0 ) (* 1 s_4 temp ) ) 0) ) (>= (+ (* 1 c_10 ) (* 1 c_11 da ) (* 1 c_12 db ) (* 1 c_13 r ) (* 1 c_14 temp ) ) 0) )))
(assert (forall ((temp Real) (r Real) (da Real) (db Real) ) (=> (and (>= (+ (* 1 da ) (* (- 1) r ) ) 0) (>= (+ (* 1023 1) (* (- 1023) db ) (* 2046 r ) (* (- 1) temp ) ) 0) (>= (+ (* 1023 1) (* (- 1) r ) ) 0) (>= (* 1 r ) 0) (>= (+ (* (- 1) db ) (* 2 r ) ) 0) (>= (+ (* (- 1) da ) (* 1 db ) ) 0) (>= (+ (* 1 da s_6 ) (* 1 db s_7 ) (* 1 r s_8 ) (* 1 s_5 ) (* 1 s_9 temp ) ) 0) ) (>= (+ (* 1 da s_6 ) (* 1 db s_7 ) (* 1 r s_8 ) (* 1 s_5 ) (* (- 1) s_6 ) (* 1 s_9 temp ) ) 0) )))
(assert (forall ((temp Real) (r Real) (da Real) (db Real) ) (=> (and (>= (+ (* 1 da ) (* (- 1) r ) ) 0) (>= (+ (* 1023 1) (* (- 1023) db ) (* 2046 r ) (* (- 1) temp ) ) 0) (>= (+ (* 1023 1) (* (- 1) r ) ) 0) (>= (* 1 r ) 0) (>= (+ (* (- 1) db ) (* 2 r ) ) 0) (>= (+ (* (- 1) da ) (* 1 db ) ) 0) (>= (+ (* 1 da s_6 ) (* 1 db s_7 ) (* 1 r s_8 ) (* 1 s_5 ) (* 1 s_9 temp ) ) 0) ) (>= (+ (* 1 c_5 ) (* (- 1) c_6 ) (* 1 c_6 da ) (* 1 c_7 db ) (* 1 c_8 r ) (* 1 c_9 temp ) ) 0) )))
(assert (forall ((temp Real) (r Real) (da Real) (db Real) ) (=> (and (>= (+ (* 1 da ) (* (- 1) r ) ) 0) (>= (+ (* 1023 1) (* (- 1023) db ) (* 2046 r ) (* (- 1) temp ) ) 0) (>= (+ (* 1023 1) (* (- 1) r ) ) 0) (>= (* 1 r ) 0) (>= (+ (* (- 1) db ) (* 2 r ) ) 0) (>= (+ (* (- 1) da ) (* 1 db ) ) 0) (>= (+ (* 1 da s_6 ) (* 1 db s_7 ) (* 1 r s_8 ) (* 1 s_5 ) (* 1 s_9 temp ) ) 0) ) (>= (+ (* (- 1) 1) (* 1 c_6 ) ) 0) )))
(assert (forall ((temp Real) (r Real) (da Real) (db Real) ) (=> (and (>= (+ (* 1 da ) (* (- 1) r ) ) 0) (>= (+ (* 1023 1) (* (- 1023) db ) (* 2046 r ) (* (- 1) temp ) ) 0) (>= (+ (* 1023 1) (* (- 1) r ) ) 0) (>= (* 1 r ) 0) (>= (+ (* (- 1) db ) (* 2 r ) ) 0) (>= (+ (* (- 1) da ) (* 1 db ) ) 0) (>= (+ (* 1 da s_6 ) (* 1 db s_7 ) (* 1 r s_8 ) (* 1 s_5 ) (* 1 s_9 temp ) ) 0) ) (>= (+ (* 1 da s_9 ) (* 1 db s_6 ) (* 1 db s_7 ) (* 1 r s_8 ) (* 1 s_5 ) (* (- 1) s_6 ) (* (- 1) s_7 ) ) 0) )))
(assert (forall ((temp Real) (r Real) (da Real) (db Real) ) (=> (and (>= (+ (* 1 da ) (* (- 1) r ) ) 0) (>= (+ (* 1023 1) (* (- 1023) db ) (* 2046 r ) (* (- 1) temp ) ) 0) (>= (+ (* 1023 1) (* (- 1) r ) ) 0) (>= (* 1 r ) 0) (>= (+ (* (- 1) db ) (* 2 r ) ) 0) (>= (+ (* (- 1) da ) (* 1 db ) ) 0) (>= (+ (* 1 da s_6 ) (* 1 db s_7 ) (* 1 r s_8 ) (* 1 s_5 ) (* 1 s_9 temp ) ) 0) ) (>= (+ (* 1 c_5 ) (* (- 1) c_6 ) (* 1 c_6 db ) (* (- 1) c_7 ) (* 1 c_7 db ) (* 1 c_8 r ) (* 1 c_9 da ) ) 0) )))
(assert (forall ((temp Real) (r Real) (da Real) (db Real) ) (=> (and (>= (+ (* 1 da ) (* (- 1) r ) ) 0) (>= (+ (* 1023 1) (* (- 1023) db ) (* 2046 r ) (* (- 1) temp ) ) 0) (>= (+ (* 1023 1) (* (- 1) r ) ) 0) (>= (* 1 r ) 0) (>= (+ (* (- 1) db ) (* 2 r ) ) 0) (>= (+ (* (- 1) da ) (* 1 db ) ) 0) (>= (+ (* 1 da s_6 ) (* 1 db s_7 ) (* 1 r s_8 ) (* 1 s_5 ) (* 1 s_9 temp ) ) 0) ) (>= (+ (* (- 1) 1) (* 1 c_6 ) (* 1 c_6 da ) (* (- 1) c_6 db ) (* 1 c_7 ) (* (- 1) c_9 da ) (* 1 c_9 temp ) ) 0) )))
(assert (forall ((temp Real) (r Real) (da Real) (db Real) ) (=> (and (>= (+ (* (- 1) 1) (* (- 1) da ) (* 1 r ) ) 0) (>= (+ (* 1023 1) (* (- 1023) db ) (* 2046 r ) (* (- 1) temp ) ) 0) (>= (+ (* 1023 1) (* (- 1) r ) ) 0) (>= (* 1 r ) 0) (>= (+ (* (- 1) db ) (* 2 r ) ) 0) (>= (+ (* (- 1) da ) (* 1 db ) ) 0) (>= (+ (* 1 da s_6 ) (* 1 db s_7 ) (* 1 r s_8 ) (* 1 s_5 ) (* 1 s_9 temp ) ) 0) ) (>= (+ (* 1 da s_11 ) (* 1 db s_12 ) (* 1 r s_13 ) (* 1 s_10 ) (* 1 s_14 temp ) ) 0) )))
(assert (forall ((temp Real) (r Real) (da Real) (db Real) ) (=> (and (>= (+ (* (- 1) 1) (* (- 1) da ) (* 1 r ) ) 0) (>= (+ (* 1023 1) (* (- 1023) db ) (* 2046 r ) (* (- 1) temp ) ) 0) (>= (+ (* 1023 1) (* (- 1) r ) ) 0) (>= (* 1 r ) 0) (>= (+ (* (- 1) db ) (* 2 r ) ) 0) (>= (+ (* (- 1) da ) (* 1 db ) ) 0) (>= (+ (* 1 da s_6 ) (* 1 db s_7 ) (* 1 r s_8 ) (* 1 s_5 ) (* 1 s_9 temp ) ) 0) ) (>= (+ (* 1 c_10 ) (* 1 c_11 da ) (* 1 c_12 db ) (* 1 c_13 r ) (* 1 c_14 temp ) ) 0) )))

(check-sat)
(get-model)
